Data path: /scratch/opt/lxu/CFLG/benchmarks/tree_A
Instance: treeA.500.25
Result path: /scratch/opt/lxu/CFLG/results/tree_A
Solver: Gurobi
Time limit: 7200
Formulation: LEFPAD
Cover: Large
julia --project=. src/main.jl /scratch/opt/lxu/CFLG/benchmarks/tree_A treeA.500.25 /scratch/opt/lxu/CFLG/results/tree_A Gurobi 7200 LEFPAD Large
The latest version of Julia in the `release` channel is 1.11.5+0.x64.linux.gnu. You currently have `1.11.4+0.x64.linux.gnu` installed. Run:

  juliaup update

in your terminal shell to install Julia 1.11.5+0.x64.linux.gnu and update the `release` channel to that version.
/scratch/opt/lxu/CFLG/benchmarks/tree_A Gurobi 7200.0 /scratch/opt/lxu/CFLG/results/tree_A treeA.500.25 LEFPAD Large
/scratch/opt/lxu/CFLG/benchmarks/tree_A/treeA.500.25

 read graph
data loaded

problem_graph/original graph: node: 500/500 edge: 524/524 dlt: 3.032875342291817 break_avg_len: 1.5164376711459084 break_max_len: 1.999041537513349Vbar/V, Ebar/E(167, 500, 191, 524)
Set parameter TokenServer to value "solice01.zib.de"
Set parameter Threads to value 1
Set parameter OutputFlag to value 1
Gurobi Optimizer version 12.0.1 build v12.0.1rc0 (linux64 - "Debian GNU/Linux 12 (bookworm)")

CPU model: Intel(R) Xeon(R) Gold 5122 CPU @ 3.60GHz, instruction set [SSE2|AVX|AVX2|AVX512]
Thread count: 8 physical cores, 16 logical processors, using up to 1 threads

Non-default parameters:
Threads  1

Optimize a model with 514 rows, 807 columns and 1345 nonzeros
Model fingerprint: 0x41154cf4
Coefficient statistics:
  Matrix range     [1e+00, 1e+00]
  Objective range  [1e+00, 1e+00]
  Bounds range     [1e+00, 1e+00]
  RHS range        [1e+00, 1e+00]
Presolve removed 514 rows and 807 columns
Presolve time: 0.00s
Presolve: All rows and columns removed
Iteration    Objective       Primal Inf.    Dual Inf.      Time
       0    7.8000000e+01   0.000000e+00   0.000000e+00      0s

Solved in 0 iterations and 0.00 seconds (0.00 work units)
Optimal objective  7.800000000e+01

User-callback calls 35, time in user-callback 0.01 sec
elapsed CPU time: 1.454799 seconds
Set parameter TokenServer to value "solice01.zib.de"
Set parameter Threads to value 1
Set parameter OutputFlag to value 1
Set parameter MIPGap to value 0.0001
Set parameter MIPGapAbs to value 0.999998
Set parameter TimeLimit to value 7198.545201

 more cuts: false 3.032875342291817 false
is_attach:trueformulation:LEFPAD0 269 0

 model loaded

Gurobi Optimizer version 12.0.1 build v12.0.1rc0 (linux64 - "Debian GNU/Linux 12 (bookworm)")

CPU model: Intel(R) Xeon(R) Gold 5122 CPU @ 3.60GHz, instruction set [SSE2|AVX|AVX2|AVX512]
Thread count: 8 physical cores, 16 logical processors, using up to 1 threads

Non-default parameters:
TimeLimit  7198.545201
MIPGapAbs  0.999998
Threads  1

Optimize a model with 9491 rows, 6685 columns and 26296 nonzeros
Model fingerprint: 0x4f1fbaff
Variable types: 3220 continuous, 3465 integer (3465 binary)
Coefficient statistics:
  Matrix range     [7e-05, 3e+00]
  Objective range  [1e+00, 1e+00]
  Bounds range     [1e-01, 3e+00]
  RHS range        [1e-06, 3e+00]
Presolve removed 4768 rows and 2961 columns
Presolve time: 0.10s
Presolved: 4723 rows, 3724 columns, 14660 nonzeros
Variable types: 1898 continuous, 1826 integer (1826 binary)
Found heuristic solution: objective 270.0000000
Found heuristic solution: objective 269.0000000

Root relaxation: objective 1.050749e+02, 2820 iterations, 0.05 seconds (0.04 work units)

    Nodes    |    Current Node    |     Objective Bounds      |     Work
 Expl Unexpl |  Obj  Depth IntInf | Incumbent    BestBd   Gap | It/Node Time

     0     0  105.07493    0  439  269.00000  105.07493  60.9%     -    0s
     0     0  105.68217    0  433  269.00000  105.68217  60.7%     -    0s
     0     0  105.68283    0  432  269.00000  105.68283  60.7%     -    0s
H    0     0                     220.0000000  105.68283  52.0%     -    0s
H    0     0                     168.0000000  105.68283  37.1%     -    0s
H    0     0                     163.0000000  105.68283  35.2%     -    0s
H    0     0                     162.0000000  105.68283  34.8%     -    0s
H    0     0                     161.0000000  105.68283  34.4%     -    0s
     0     0  111.34823    0  548  161.00000  111.34823  30.8%     -    0s
     0     0  111.49041    0  540  161.00000  111.49041  30.8%     -    0s
H    0     0                     153.0000000  111.52714  27.1%     -    0s
     0     0  111.62355    0  529  153.00000  111.62355  27.0%     -    0s
     0     0  111.62531    0  515  153.00000  111.62531  27.0%     -    0s
     0     0  111.62531    0  515  153.00000  111.62531  27.0%     -    0s
     0     0  114.12370    0  496  153.00000  114.12370  25.4%     -    0s
     0     0  114.17776    0  581  153.00000  114.17776  25.4%     -    0s
     0     0  114.18092    0  579  153.00000  114.18092  25.4%     -    0s
     0     0  114.18093    0  581  153.00000  114.18093  25.4%     -    0s
     0     0  116.47048    0  516  153.00000  116.47048  23.9%     -    0s
     0     0  116.47048    0  510  153.00000  116.47048  23.9%     -    0s
H    0     0                     148.0000000  116.55381  21.2%     -    0s
H    0     0                     147.0000000  116.55381  20.7%     -    0s
     0     0  116.68772    0  512  147.00000  116.68772  20.6%     -    0s
     0     0  116.69141    0  519  147.00000  116.69141  20.6%     -    0s
     0     0  116.69156    0  515  147.00000  116.69156  20.6%     -    0s
     0     0  118.00949    0  424  147.00000  118.00949  19.7%     -    0s
     0     0  118.00949    0  419  147.00000  118.00949  19.7%     -    0s
     0     0  118.05150    0  466  147.00000  118.05150  19.7%     -    0s
     0     0  118.05157    0  455  147.00000  118.05157  19.7%     -    0s
     0     0  118.07694    0  392  147.00000  118.07694  19.7%     -    0s
H    0     0                     146.0000000  118.07694  19.1%     -    1s
     0     0  118.10078    0  414  146.00000  118.10078  19.1%     -    1s
     0     0  118.10245    0  416  146.00000  118.10245  19.1%     -    1s
     0     0  118.13250    0  471  146.00000  118.13250  19.1%     -    1s
     0     0  118.13429    0  501  146.00000  118.13429  19.1%     -    1s
     0     0  118.15217    0  510  146.00000  118.15217  19.1%     -    1s
     0     0  118.15455    0  508  146.00000  118.15455  19.1%     -    1s
     0     0  118.16924    0  486  146.00000  118.16924  19.1%     -    1s
     0     0  118.16924    0  326  146.00000  118.16924  19.1%     -    1s
H    0     0                     141.0000000  118.18555  16.2%     -    1s
H    0     0                     138.0000000  118.18555  14.4%     -    1s
H    0     0                     137.0000000  118.18555  13.7%     -    1s
     0     2  118.18555    0  318  137.00000  118.18555  13.7%     -    1s
H   52    48                     134.0000000  118.48075  11.6%  49.1    1s
H   52    48                     132.0000000  118.48075  10.2%  49.1    1s
H  117   111                     131.0000000  118.48075  9.56%  37.2    1s
H  390   325                     129.0000000  118.61821  8.05%  37.8    2s
H  562   408                     128.0000000  118.62143  7.33%  35.5    3s
   579   420  124.77813   73  280  128.00000  122.18022  4.55%  34.4    5s
H  604   413                     127.0000000  125.50000  1.18%  33.0    7s

Cutting planes:
  Gomory: 31
  Lift-and-project: 4
  Cover: 43
  Implied bound: 67
  Clique: 5
  MIR: 143
  Mixing: 1
  Flow cover: 118
  GUB cover: 58
  Zero half: 31
  Mod-K: 1
  RLT: 112
  Relax-and-lift: 3
  BQP: 36
  PSD: 1

Explored 616 nodes (90805 simplex iterations) in 8.51 seconds (5.27 work units)
Thread count was 1 (of 16 available processors)

Solution count 10: 127 127 128 ... 138

Optimal solution found (tolerance 1.00e-04)
Best objective 1.270000000000e+02, best bound 1.270000000000e+02, gap 0.0000%

User-callback calls 5110, time in user-callback 0.01 sec

 sepatime0 0 0
127.0Stat(MathOptInterface.OPTIMAL, 127.0, 127.0, 0.0, 0.0, 1.454799, 8.508265018463135, 616, Main.CFLG.LEFPAD, "", #undef)
ERROR: LoadError: SystemError: opening file "/scratch/opt/lxu/CFLG/results/tree_A/treeA.500.25.LEFPAD.Large": No such file or directory
Stacktrace:
 [1] systemerror(p::String, errno::Int32; extrainfo::Nothing)
   @ Base ./error.jl:176
 [2] systemerror
   @ ./error.jl:175 [inlined]
 [3] open(fname::String; lock::Bool, read::Nothing, write::Nothing, create::Nothing, truncate::Bool, append::Nothing)
   @ Base ./iostream.jl:295
 [4] open
   @ ./iostream.jl:277 [inlined]
 [5] open(fname::String, mode::String; lock::Bool)
   @ Base ./iostream.jl:358
 [6] open
   @ ./iostream.jl:357 [inlined]
 [7] main(args::Vector{String})
   @ Main /scratch/opt/lxu/CFLG/src/main.jl:51
 [8] top-level scope
   @ /scratch/opt/lxu/CFLG/src/main.jl:57
in expression starting at /scratch/opt/lxu/CFLG/src/main.jl:57
srun: error: htc-cmp479: task 0: Exited with exit code 1
